% seed = 4871898

mint = 38;
% maxt = 99;

nActs = 22;
dur = [0,3,3,2,10,2,3,9,9,4,1,2,10,7,6,6,2,5,3,8,4,0];

nSkills = 4;
sreq = [| 0,0,0,0,
	| 0,1,2,1,
	| 1,2,0,1,
	| 2,3,2,0,
	| 0,1,1,1,
	| 3,0,2,2,
	| 3,1,0,3,
	| 0,3,3,2,
	| 0,2,3,1,
	| 0,3,2,1,
	| 3,0,2,3,
	| 2,0,3,2,
	| 2,0,2,3,
	| 0,1,1,2,
	| 3,1,0,1,
	| 3,0,1,1,
	| 0,2,2,3,
	| 3,0,3,1,
	| 1,0,3,2,
	| 0,2,1,3,
	| 2,0,1,3,
	| 0,0,0,0, |];

nResources = 20;
mastery = [| false,false,true,false,
	| false,true,true,true,
	| true,true,false,true,
	| true,false,true,false,
	| true,false,true,true,
	| false,true,true,true,
	| true,false,true,true,
	| true,false,true,false,
	| false,false,false,true,
	| false,true,false,false,
	| true,true,false,true,
	| false,true,false,true,
	| false,true,true,true,
	| true,true,true,false,
	| true,true,false,true,
	| true,true,false,true,
	| false,true,true,true,
	| true,true,true,false,
	| false,false,false,true,
	| false,true,true,false, |];

nPrecs = 31;
pred = [1,1,1,2,3,3,3,4,4,4,5,5,5,6,7,8,9,10,10,11,11,12,13,14,15,16,17,18,19,20,21];
succ = [2,3,4,12,17,6,7,18,5,15,9,10,8,12,20,20,14,11,12,21,13,20,16,17,19,17,19,21,22,22,22];

nUnrels = 124;
unpred = [2,2,2,2,2,2,2,2,2,2,2,2,2,2,2,2,2,3,3,3,3,3,3,3,3,3,3,3,3,4,4,5,5,5,5,6,6,6,6,6,6,6,6,6,6,6,6,6,7,7,7,7,7,7,7,7,7,7,7,7,7,8,8,8,8,8,8,8,8,8,8,8,8,9,9,9,9,9,9,9,9,9,10,10,10,11,11,11,11,11,12,12,12,12,12,12,12,12,13,13,13,13,13,14,14,14,14,14,15,15,15,15,15,16,16,16,17,17,17,18,18,19,19,20];
unsucc = [3,4,5,6,7,8,9,10,11,13,14,15,16,17,18,19,21,4,5,8,9,10,11,13,14,15,16,18,21,6,7,6,7,15,18,7,8,9,10,11,13,14,15,16,17,18,19,21,8,9,10,11,12,13,14,15,16,17,18,19,21,9,10,11,12,13,14,15,16,17,18,19,21,10,11,12,13,15,16,18,20,21,14,15,18,12,14,15,18,20,13,14,15,16,17,18,19,21,14,15,18,20,21,15,16,18,20,21,16,17,18,20,21,18,20,21,18,20,21,19,20,20,21,21];

USEFUL_RES = [{},
	{1,2,3,4,5,6,7,8,9,10,11,12,13,14,15,16,17,18,19,20},
	{2,3,4,5,6,7,8,9,10,11,12,13,14,15,16,17,18,19,20},
	{1,2,3,4,5,6,7,8,10,11,12,13,14,15,16,17,18,20},
	{1,2,3,4,5,6,7,8,9,10,11,12,13,14,15,16,17,18,19,20},
	{1,2,3,4,5,6,7,8,9,11,12,13,14,15,16,17,18,19,20},
	{2,3,4,5,6,7,8,9,10,11,12,13,14,15,16,17,18,19,20},
	{1,2,3,4,5,6,7,8,9,10,11,12,13,14,15,16,17,18,19,20},
	{1,2,3,4,5,6,7,8,9,10,11,12,13,14,15,16,17,18,19,20},
	{1,2,3,4,5,6,7,8,9,10,11,12,13,14,15,16,17,18,19,20},
	{1,2,3,4,5,6,7,8,9,11,12,13,14,15,16,17,18,19,20},
	{1,2,3,4,5,6,7,8,9,11,12,13,14,15,16,17,18,19,20},
	{1,2,3,4,5,6,7,8,9,11,12,13,14,15,16,17,18,19,20},
	{1,2,3,4,5,6,7,8,9,10,11,12,13,14,15,16,17,18,19,20},
	{2,3,4,5,6,7,8,9,10,11,12,13,14,15,16,17,18,19,20},
	{1,2,3,4,5,6,7,8,9,11,12,13,14,15,16,17,18,19,20},
	{1,2,3,4,5,6,7,8,9,10,11,12,13,14,15,16,17,18,19,20},
	{1,2,3,4,5,6,7,8,9,11,12,13,14,15,16,17,18,19,20},
	{1,2,3,4,5,6,7,8,9,11,12,13,14,15,16,17,18,19,20},
	{1,2,3,4,5,6,7,8,9,10,11,12,13,14,15,16,17,18,19,20},
	{1,2,3,4,5,6,7,8,9,11,12,13,14,15,16,17,18,19,20},
	{}];

POTENTIAL_ACT = [{2,4,5,6,8,9,10,11,12,13,14,16,17,18,19,20,21},
	{2,3,4,5,6,7,8,9,10,11,12,13,14,15,16,17,18,19,20,21},
	{2,3,4,5,6,7,8,9,10,11,12,13,14,15,16,17,18,19,20,21},
	{2,3,4,5,6,7,8,9,10,11,12,13,14,15,16,17,18,19,20,21},
	{2,3,4,5,6,7,8,9,10,11,12,13,14,15,16,17,18,19,20,21},
	{2,3,4,5,6,7,8,9,10,11,12,13,14,15,16,17,18,19,20,21},
	{2,3,4,5,6,7,8,9,10,11,12,13,14,15,16,17,18,19,20,21},
	{2,3,4,5,6,7,8,9,10,11,12,13,14,15,16,17,18,19,20,21},
	{2,3,5,6,7,8,9,10,11,12,13,14,15,16,17,18,19,20,21},
	{2,3,4,5,7,8,9,10,14,15,17,20},
	{2,3,4,5,6,7,8,9,10,11,12,13,14,15,16,17,18,19,20,21},
	{2,3,4,5,6,7,8,9,10,11,12,13,14,15,16,17,18,19,20,21},
	{2,3,4,5,6,7,8,9,10,11,12,13,14,15,16,17,18,19,20,21},
	{2,3,4,5,6,7,8,9,10,11,12,13,14,15,16,17,18,19,20,21},
	{2,3,4,5,6,7,8,9,10,11,12,13,14,15,16,17,18,19,20,21},
	{2,3,4,5,6,7,8,9,10,11,12,13,14,15,16,17,18,19,20,21},
	{2,3,4,5,6,7,8,9,10,11,12,13,14,15,16,17,18,19,20,21},
	{2,3,4,5,6,7,8,9,10,11,12,13,14,15,16,17,18,19,20,21},
	{2,3,5,6,7,8,9,10,11,12,13,14,15,16,17,18,19,20,21},
	{2,3,4,5,6,7,8,9,10,11,12,13,14,15,16,17,18,19,20,21}];
